/*********************************************
 * OPL 12.6.0.0 Data
 * Author: Adrian Rodriguez Bazaga, Pau Rodriguez Esmerats
 * Creation Date: 06/12/2017 at 23:02:55
 *********************************************/

nNurses=123;
maxConsec=2;
maxPresence=7;
maxHours=5;
minHours=1;
hours=24;
demand= [19 16 32 32 16 32 32 17 22 14 2 1 2 2 4 1 3 1 2 1 18 32 16 27  ];
